p tw 130 300
0 1
0 2
0 13
0 14
1 2
2 6
2 7
2 15
2 16
2 26
2 27
2 60
2 61
2 64
2 65
2 44
2 82
2 89
2 90
2 84
2 114
2 75
2 101
2 128
2 129
3 4
3 5
4 5
4 46
4 105
5 38
5 39
5 6
5 51
5 58
5 59
5 66
5 67
5 73
5 93
5 95
5 96
5 8
5 107
5 32
5 120
5 15
5 30
5 68
5 91
6 7
6 51
7 21
7 71
8 9
8 10
8 107
9 10
9 11
9 12
10 22
10 23
10 49
10 50
10 19
10 62
10 47
10 70
10 53
10 86
10 110
10 111
10 27
10 38
10 109
10 115
11 12
11 40
11 41
11 54
11 55
11 73
11 74
11 20
11 80
11 57
11 67
11 95
11 97
11 89
11 100
11 31
11 104
11 102
11 113
11 108
11 127
12 34
12 63
13 14
13 17
13 18
13 30
13 31
13 68
13 69
13 84
13 85
13 83
13 119
13 86
13 124
13 117
13 125
14 42
14 118
15 16
15 30
16 46
16 122
17 18
17 32
17 33
18 36
18 42
19 20
19 21
19 62
20 21
20 80
21 24
21 25
21 28
21 29
21 52
21 53
21 56
21 57
21 71
21 60
21 103
21 48
21 117
21 90
21 111
21 40
21 121
21 45
21 50
21 115
21 129
22 23
22 42
22 43
24 25
24 33
24 112
25 46
25 94
26 27
26 34
26 35
27 38
28 29
29 42
29 91
30 31
31 104
32 33
32 120
33 75
33 76
33 108
33 109
33 112
33 100
33 123
33 43
33 98
34 35
34 36
34 37
34 47
34 48
34 63
34 78
34 79
34 87
34 88
34 59
34 94
34 74
34 101
34 103
34 105
34 99
34 106
34 64
34 96
36 37
36 42
38 39
39 46
39 72
40 41
40 121
41 46
41 85
42 43
42 91
42 56
42 79
42 97
42 116
42 118
42 82
42 126
43 98
44 45
44 46
44 82
45 46
45 50
46 72
46 70
46 77
46 69
46 81
46 62
46 83
46 63
46 92
46 98
46 99
46 52
46 102
46 85
46 122
46 71
46 88
46 54
46 118
46 94
46 105
47 48
47 70
48 117
49 50
52 53
52 102
53 86
54 55
54 118
56 57
56 79
57 67
58 59
59 94
60 61
60 103
62 83
63 92
64 65
64 96
66 67
68 69
68 91
69 81
70 77
71 88
73 74
73 93
74 101
75 76
75 101
78 79
82 126
83 119
84 85
84 114
86 124
87 88
89 90
89 100
90 111
95 96
95 97
97 116
98 99
99 106
100 123
102 113
103 105
108 109
108 127
109 115
110 111
115 129
117 125
128 129
